letting n =  10
letting blocks =  [[1, 3], [1, 5], [1, 10], [2, 2], [2, 4], [2, 6], [3, 1], [3, 6], [4, 1], [4, 3], [4, 4], [4, 7], [5, 2], [5, 5], [5, 8], [6, 9], [7, 1], [7, 5], [8, 4], [8, 6], [8, 10], [9, 3], [9, 5], [9, 7], [9, 8], [9, 10], [10, 3], [10, 4], [10, 6], [10, 8]]
